results/res_prop_muc/res_Cimatti_mathsat_cores/QF_LRA/clocksynchro_5clocks.worst_case_skew.induct.smt.smt2.res
unsat
( c1
  c10
  c106
  c108
  c11
  c110
  c112
  c113
  c116
  c117
  c12
  c120
  c122
  c124
  c126
  c13
  c130
  c132
  c134
  c136
  c138
  c14
  c140
  c142
  c145
  c146
  c147
  c148
  c149
  c15
  c150
  c151
  c152
  c153
  c154
  c155
  c156
  c157
  c158
  c159
  c16
  c160
  c161
  c17
  c18
  c19
  c2
  c20
  c21
  c22
  c23
  c24
  c25
  c26
  c27
  c28
  c29
  c3
  c30
  c31
  c32
  c33
  c34
  c35
  c36
  c37
  c38
  c39
  c4
  c40
  c41
  c42
  c43
  c47
  c48
  c49
  c5
  c50
  c51
  c52
  c53
  c54
  c55
  c56
  c57
  c58
  c59
  c6
  c60
  c61
  c62
  c63
  c64
  c65
  c66
  c67
  c68
  c69
  c7
  c70
  c71
  c72
  c73
  c74
  c75
  c76
  c77
  c78
  c79
  c8
  c80
  c81
  c82
  c83
  c84
  c85
  c86
  c87
  c88
  c89
  c9 )
